language ESSENCE' 1.0

letting jobs = 102
letting horizon = 797
letting resourcesRenew = 2
letting resourcesNonrenew = 2
letting resourceLimits = [63, 64, 246, 279]
letting successors = [[2, 3, 4, 5, 6, 7, 8, 9, 10, 11, 12, 13, 14, 15, 16, 17, 19, 20, 21, 22, 23, 24, 25, 26, 27, 28, 29, 30, 31, 32, 36, 38, 42, 45, 46, 49, 61], [101, 99, 98, 97, 73, 68, 67, 66, 64, 62, 59, 58, 56, 54, 51, 50, 47, 43, 40, 39], [101, 72, 69, 66, 58, 56, 54, 48, 43, 34, 18], [101, 100, 97, 95, 94, 73, 66, 62, 59, 58, 57, 56, 53, 50, 47, 44, 41, 39], [101, 91, 89, 73, 69, 67, 64, 63, 62, 59, 58, 55, 53, 51, 50, 43, 39], [100, 96, 95, 93, 91, 73, 72, 70, 69, 67, 59, 56, 55, 47, 34, 33], [100, 98, 89, 69, 65, 56, 54, 53, 48, 39, 37, 35, 34], [101, 99, 97, 95, 94, 93, 90, 72, 70, 69, 67, 66, 65, 63, 62, 57, 55, 54, 52, 50, 41], [99, 97, 96, 93, 90, 86, 72, 69, 68, 64, 58, 53, 51, 47, 40], [101, 98, 97, 95, 88, 69, 68, 66, 65, 64, 62, 47, 43, 39], [97, 96, 94, 93, 90, 89, 85, 83, 82, 73, 72, 69, 68, 67, 66, 65, 64, 58, 55, 53, 52], [101, 98, 95, 94, 93, 92, 90, 89, 85, 83, 82, 81, 72, 71, 70, 68, 67, 66, 65, 64, 63, 62, 54, 52], [101, 99, 96, 93, 91, 89, 88, 87, 85, 82, 79, 78, 72, 69, 66, 64, 63, 62, 59, 58, 52], [100, 99, 98, 97, 94, 91, 89, 87, 86, 85, 83, 82, 71, 65, 64, 63, 60, 59, 58, 53], [99, 97, 96, 95, 93, 92, 89, 88, 87, 86, 84, 82, 78, 76, 70, 68, 63, 62, 44], [100, 98, 94, 91, 89, 87, 85, 83, 82, 79, 72, 70, 66, 64, 63, 62, 59, 53, 52], [95, 93, 91, 90, 89, 72, 70, 69, 65, 55, 34], [100, 99, 98, 97, 96, 93, 91, 89, 88, 86, 84, 83, 82, 74, 73, 59, 51], [97, 96, 93, 90, 89, 85, 83, 81, 79, 73, 67, 63, 58, 52, 50], [98, 92, 87, 82, 80, 73, 65, 64, 44, 39], [98, 94, 92, 91, 88, 87, 82, 69, 64, 63, 39], [98, 96, 91, 89, 87, 86, 85, 84, 79, 73, 64, 63, 62, 53, 50], [95, 94, 86, 85, 84, 83, 82, 73, 71, 70, 64, 63, 54, 53], [96, 88, 87, 85, 80, 73, 71, 64, 39], [95, 93, 91, 82, 80, 79, 77, 70, 67, 53, 43], [98, 95, 92, 91, 88, 87, 85, 82, 81, 80, 79, 78, 71, 70, 63, 52], [96, 92, 89, 88, 85, 83, 82, 81, 79, 78, 72, 71, 70, 62, 52], [100, 96, 93, 91, 90, 89, 87, 85, 84, 83, 82, 81, 79, 78, 76, 71, 70, 63], [96, 94, 93, 92, 91, 90, 89, 87, 85, 83, 82, 79, 78, 76, 71, 66, 63], [94, 93, 87, 85, 83, 81, 80, 79, 78, 71, 58, 52], [96, 95, 93, 89, 87, 86, 85, 84, 82, 81, 77, 72, 71, 64, 62], [97, 95, 94, 86, 81, 80, 71, 70, 64, 63, 55], [101, 97, 92, 89, 85, 83, 80, 77, 71, 64, 53], [99, 92, 83, 82, 81, 79, 78, 63, 62, 52], [97, 93, 85, 84, 83, 79, 76, 71, 70, 47], [92, 91, 89, 87, 82, 80, 79, 73, 70, 69, 63], [95, 90, 88, 84, 83, 82, 81, 79, 78, 77, 70, 64], [95, 94, 91, 87, 84, 82, 81, 79, 77, 76, 70, 62], [93, 90, 83, 81, 79, 78, 72, 70, 52], [100, 94, 89, 88, 85, 84, 83, 79, 78, 76, 70], [92, 91, 85, 83, 81, 80, 74, 64], [82, 81, 79, 78, 77, 72, 71, 70], [96, 94, 87, 85, 83, 78, 74, 71], [91, 90, 85, 83, 81, 79, 71], [89, 86, 85, 81, 78, 76, 70], [89, 84, 82, 80, 76, 72], [87, 82, 80, 74, 63], [90, 85, 83, 71, 70], [92, 85, 82, 76, 63], [88, 82, 80, 78, 76, 74], [95, 94, 76, 65], [86, 84, 77, 76, 75], [88, 81, 78, 76, 74], [91, 88, 80, 79, 76], [84, 79, 78, 77, 75], [83, 78, 77, 76, 74], [89, 82, 78, 77, 76], [92, 77, 76, 70], [90, 81, 80, 75], [79, 78, 77, 74], [82, 77, 70], [80, 75, 74], [77, 75], [76, 75], [79, 77], [86, 80], [87, 76], [77, 74], [71], [74], [75], [74], [78], [102], [102], [102], [102], [102], [102], [102], [102], [102], [102], [102], [102], [102], [102], [102], [102], [102], [102], [102], [102], [102], [102], [102], [102], [102], [102], [102], [102], []]
letting durations = [[0], [2, 3, 9], [1, 3, 6], [4, 8, 9], [6, 7, 9], [3, 3, 6], [3, 6, 7], [1, 5, 7], [3, 7, 8], [6, 7, 10], [3, 7, 8], [5, 7, 9], [1, 5, 8], [1, 6, 8], [4, 6, 9], [1, 2, 3], [2, 4, 6], [3, 5, 9], [3, 5, 8], [4, 5, 7], [4, 4, 5], [6, 9, 10], [2, 3, 4], [1, 2, 8], [1, 6, 7], [3, 9, 10], [2, 2, 5], [2, 2, 6], [6, 6, 8], [2, 6, 9], [7, 8, 10], [3, 4, 7], [2, 4, 7], [4, 5, 10], [1, 3, 9], [4, 8, 9], [4, 7, 10], [7, 10, 10], [2, 2, 10], [1, 6, 7], [3, 4, 10], [1, 9, 10], [1, 8, 10], [2, 3, 6], [6, 6, 10], [1, 2, 3], [2, 6, 7], [6, 7, 7], [4, 4, 9], [5, 6, 7], [1, 10, 10], [4, 4, 5], [2, 4, 5], [2, 3, 9], [2, 8, 9], [3, 5, 7], [6, 9, 10], [4, 9, 9], [5, 6, 7], [5, 8, 9], [3, 7, 9], [7, 8, 10], [5, 8, 8], [2, 3, 8], [3, 4, 10], [1, 4, 10], [1, 6, 7], [6, 9, 10], [1, 5, 6], [3, 4, 10], [9, 10, 10], [2, 3, 5], [1, 3, 3], [2, 7, 8], [1, 9, 9], [3, 6, 7], [5, 9, 10], [4, 6, 8], [4, 5, 10], [1, 2, 8], [1, 5, 8], [3, 8, 9], [1, 3, 9], [3, 3, 4], [2, 3, 7], [3, 8, 8], [1, 6, 8], [3, 8, 10], [2, 5, 9], [3, 7, 8], [3, 4, 6], [2, 4, 5], [2, 4, 7], [2, 10, 10], [3, 6, 7], [3, 5, 10], [1, 2, 6], [1, 4, 6], [4, 9, 10], [1, 3, 8], [1, 8, 10], [0]]
letting resourceUsage = [[[0, 0, 0, 0]], [[4, 9, 0, 7], [4, 8, 0, 5], [4, 6, 0, 3]], [[3, 2, 0, 8], [2, 2, 6, 0], [1, 1, 1, 0]], [[9, 4, 8, 0], [6, 4, 5, 0], [4, 4, 3, 0]], [[6, 3, 4, 0], [5, 3, 0, 7], [5, 2, 0, 2]], [[5, 7, 6, 0], [4, 5, 0, 8], [1, 4, 0, 6]], [[6, 4, 0, 6], [6, 3, 0, 3], [6, 1, 7, 0]], [[10, 6, 0, 2], [5, 6, 0, 2], [3, 3, 5, 0]], [[8, 7, 8, 0], [6, 5, 0, 7], [6, 4, 7, 0]], [[6, 3, 0, 5], [4, 3, 0, 3], [3, 3, 0, 2]], [[1, 8, 6, 0], [1, 6, 6, 0], [1, 6, 5, 0]], [[9, 7, 7, 0], [6, 4, 7, 0], [6, 2, 0, 2]], [[2, 9, 0, 7], [2, 4, 7, 0], [2, 3, 2, 0]], [[9, 7, 9, 0], [8, 6, 7, 0], [6, 6, 6, 0]], [[10, 4, 6, 0], [6, 3, 0, 7], [4, 2, 0, 7]], [[6, 7, 9, 0], [5, 6, 8, 0], [5, 6, 7, 0]], [[3, 1, 0, 4], [3, 1, 7, 0], [2, 1, 6, 0]], [[9, 2, 6, 0], [7, 2, 6, 0], [7, 2, 0, 1]], [[8, 8, 0, 3], [7, 5, 0, 3], [6, 3, 0, 3]], [[9, 8, 9, 0], [9, 8, 8, 0], [9, 8, 0, 1]], [[2, 7, 0, 9], [1, 6, 0, 10], [1, 6, 0, 9]], [[5, 7, 0, 7], [4, 6, 6, 0], [4, 3, 5, 0]], [[6, 10, 6, 0], [4, 6, 0, 6], [4, 4, 6, 0]], [[7, 4, 2, 0], [5, 3, 2, 0], [2, 3, 2, 0]], [[5, 7, 8, 0], [4, 3, 5, 0], [3, 1, 0, 8]], [[2, 5, 0, 7], [1, 5, 6, 0], [1, 5, 5, 0]], [[8, 6, 9, 0], [6, 2, 0, 7], [5, 1, 9, 0]], [[2, 3, 5, 0], [2, 2, 0, 5], [2, 2, 0, 4]], [[4, 7, 8, 0], [4, 6, 0, 7], [3, 6, 5, 0]], [[8, 3, 0, 3], [6, 2, 0, 2], [4, 1, 0, 1]], [[7, 9, 0, 6], [6, 8, 0, 5], [4, 8, 0, 4]], [[1, 9, 0, 8], [1, 9, 4, 0], [1, 9, 0, 2]], [[3, 3, 0, 8], [2, 2, 0, 6], [1, 2, 0, 4]], [[6, 7, 0, 9], [6, 6, 7, 0], [6, 6, 0, 4]], [[8, 3, 0, 6], [7, 1, 0, 4], [6, 1, 0, 2]], [[8, 7, 6, 0], [7, 5, 0, 4], [7, 3, 0, 4]], [[7, 7, 7, 0], [7, 5, 0, 5], [4, 3, 4, 0]], [[9, 4, 0, 5], [6, 4, 5, 0], [4, 4, 0, 4]], [[8, 3, 5, 0], [8, 3, 0, 5], [8, 3, 3, 0]], [[7, 4, 7, 0], [7, 2, 0, 9], [4, 2, 0, 9]], [[4, 8, 5, 0], [4, 5, 2, 0], [4, 3, 0, 4]], [[9, 8, 9, 0], [9, 5, 0, 6], [7, 1, 0, 6]], [[4, 4, 0, 7], [3, 2, 0, 3], [2, 2, 2, 0]], [[2, 4, 9, 0], [2, 2, 0, 3], [2, 2, 6, 0]], [[9, 7, 0, 6], [9, 6, 6, 0], [8, 5, 5, 0]], [[4, 8, 0, 7], [3, 4, 4, 0], [3, 4, 3, 0]], [[3, 3, 0, 3], [3, 3, 2, 0], [3, 2, 2, 0]], [[7, 9, 9, 0], [6, 7, 0, 4], [5, 7, 8, 0]], [[9, 6, 0, 8], [7, 4, 2, 0], [7, 4, 0, 4]], [[6, 7, 0, 5], [3, 6, 5, 0], [2, 6, 4, 0]], [[6, 7, 6, 0], [5, 5, 0, 8], [4, 3, 5, 0]], [[4, 8, 0, 6], [3, 6, 6, 0], [2, 4, 5, 0]], [[7, 9, 5, 0], [7, 9, 4, 0], [7, 9, 0, 6]], [[6, 7, 0, 5], [4, 7, 0, 4], [2, 7, 0, 2]], [[8, 9, 0, 7], [6, 9, 0, 5], [5, 9, 0, 4]], [[9, 5, 0, 5], [8, 4, 0, 3], [6, 3, 0, 3]], [[8, 7, 8, 0], [7, 6, 8, 0], [7, 5, 8, 0]], [[8, 6, 0, 9], [7, 4, 5, 0], [7, 4, 0, 6]], [[7, 4, 5, 0], [4, 4, 0, 1], [3, 4, 4, 0]], [[6, 10, 0, 10], [4, 6, 0, 7], [3, 5, 1, 0]], [[5, 6, 0, 7], [4, 6, 7, 0], [2, 4, 0, 3]], [[6, 7, 0, 4], [4, 6, 7, 0], [3, 5, 7, 0]], [[6, 9, 0, 7], [4, 8, 0, 5], [2, 7, 2, 0]], [[4, 4, 4, 0], [4, 3, 0, 3], [3, 2, 0, 3]], [[8, 5, 6, 0], [7, 4, 5, 0], [6, 3, 3, 0]], [[5, 6, 0, 7], [4, 4, 0, 6], [3, 4, 0, 5]], [[7, 7, 0, 8], [6, 7, 0, 3], [2, 3, 0, 3]], [[8, 8, 6, 0], [5, 5, 0, 4], [3, 3, 0, 4]], [[6, 9, 5, 0], [4, 6, 0, 7], [3, 5, 0, 7]], [[4, 4, 5, 0], [3, 3, 3, 0], [1, 2, 3, 0]], [[7, 6, 0, 7], [3, 4, 3, 0], [2, 4, 0, 1]], [[1, 7, 6, 0], [1, 7, 0, 4], [1, 5, 0, 4]], [[6, 7, 4, 0], [4, 7, 4, 0], [3, 7, 0, 2]], [[7, 7, 0, 4], [6, 7, 0, 4], [4, 5, 0, 2]], [[2, 4, 0, 6], [2, 2, 7, 0], [1, 1, 0, 5]], [[6, 2, 2, 0], [6, 1, 3, 0], [6, 1, 2, 0]], [[6, 5, 0, 3], [5, 5, 0, 3], [5, 3, 0, 3]], [[7, 9, 7, 0], [6, 5, 0, 7], [3, 4, 0, 6]], [[2, 8, 0, 5], [2, 8, 0, 3], [2, 8, 8, 0]], [[3, 9, 0, 8], [2, 8, 6, 0], [2, 6, 3, 0]], [[6, 5, 0, 9], [6, 4, 0, 6], [5, 3, 4, 0]], [[4, 7, 0, 1], [3, 6, 0, 1], [3, 4, 0, 1]], [[8, 7, 0, 5], [7, 6, 0, 5], [6, 6, 4, 0]], [[4, 3, 0, 5], [2, 1, 3, 0], [1, 1, 0, 2]], [[8, 10, 0, 5], [7, 9, 0, 4], [5, 8, 0, 3]], [[8, 8, 0, 7], [6, 8, 0, 7], [4, 7, 1, 0]], [[3, 7, 0, 5], [2, 3, 5, 0], [1, 3, 0, 3]], [[10, 5, 0, 5], [8, 3, 0, 3], [8, 3, 6, 0]], [[7, 8, 4, 0], [6, 7, 0, 6], [6, 7, 3, 0]], [[3, 10, 4, 0], [3, 9, 4, 0], [3, 8, 0, 2]], [[10, 6, 3, 0], [10, 6, 0, 3], [10, 6, 0, 2]], [[3, 4, 4, 0], [2, 3, 3, 0], [2, 3, 0, 2]], [[7, 7, 0, 8], [6, 5, 0, 7], [6, 4, 2, 0]], [[5, 8, 5, 0], [5, 8, 0, 4], [5, 6, 5, 0]], [[10, 9, 0, 3], [9, 8, 8, 0], [9, 8, 0, 3]], [[4, 6, 6, 0], [2, 6, 6, 0], [2, 6, 0, 4]], [[2, 6, 0, 5], [1, 6, 0, 4], [1, 5, 4, 0]], [[3, 3, 0, 5], [3, 2, 0, 5], [3, 2, 0, 4]], [[7, 8, 5, 0], [5, 6, 4, 0], [5, 5, 4, 0]], [[4, 4, 0, 7], [4, 4, 5, 0], [4, 3, 4, 0]], [[7, 7, 3, 0], [6, 6, 0, 7], [4, 6, 3, 0]], [[0, 0, 0, 0]]]
